sat
(:binary-propagations  369
 :decisions            342
 :del-clause           87
 :final-checks         6
 :max-generation       1
 :max-memory           23.82
 :memory               21.14
 :mk-bool-var          560
 :mk-clause            151
 :mk-clause-binary     370
 :num-allocs           10061613
 :num-checks           1
 :propagations         418
 :quant-instantiations 90
 :restarts             5
 :rlimit-count         151595
 :time                 0.03)
